4 
5  20 47 
6  03 23 38 50 58 
7  05 13 20 28 35 43 50 58 
8  05 13 20 28 35 43 50 58 
9  05 13 23 32 40 47 55 
10  02 10 17 25 32 40 47 55 
11  02 10 17 25 32 40 47 55 
12  02 10 17 25 32 40 47 55 
13  02 10 18 26 34 41 49 56 
14  04 11 19 26 34 41 49 58 
15  06 13 21 28 36 43 51 58 
16  06 13 21 28 36 43 51 58 
17  06 13 21 28 36 43 51 58 
18  06 13 21 28 36 43 51 58 
19  06 13 21 28 36 43 51 59 
20  06 13 21 28 36 43 51 58 
21  06 13 21 28 43 58 
22  13 28 44 59 
23  14 27 42 
0 
